p cnf 41 30
-4 -288
-14 -348
-18 -66
-18 -148
-20 -146
-20 -314
-20 -364
-38 -148
-38 -190
-50 -116
-64 -102
-64 -288
-76 -150
-76 -350
-88 -146
-90 -128
-110 -202
-132 -396
-142 -284
-146 -314
-148 -204
-150 -396
-156 -282
-174 -196
-204 -270
-270 -386
-286 -384
-314 -372
-340 -350
-340 -390

